Problem:    
Rows:       105
Columns:    45 (34 integer, 34 binary)
Non-zeros:  302
Status:     INTEGER OPTIMAL
Objective:  value = 22.73399 (MINimum)

   No.   Row name        Activity     Lower bound   Upper bound
------ ------------    ------------- ------------- -------------
     1 r.5                   2022.73             0               
     2 r.6                  -1979.13      -1996.76               
     3 r.7                    22.734             0               
     4 r.8                   11.2505      -1993.33               
     5 r.9                   2022.73             0               
     6 r.10                 -1982.37      -1987.32               
     7 r.11                   22.734             0               
     8 r.12                 -1954.02      -1981.09               
     9 r.13                   22.734             0               
    10 r.14                  4.94679      -1994.24               
    11 r.15                  2022.73             0               
    12 r.16                 -1977.27      -1988.52               
    13 r.17                  2022.73             0               
    14 r.18                 -1977.27      -1998.13               
    15 r.19                   22.734             0               
    16 r.20                 -1972.93      -1995.66               
    17 r.21                  2022.73             0               
    18 r.22                 -1999.24      -1999.24               
    19 r.23                   22.734             0               
    20 r.24                   0.7557      -1997.93               
    21 r.25                        1             1             = 
    22 r.26                        1             1             = 
    23 r.27                        1             1             = 
    24 r.28                        1             1             = 
    25 r.29                        1             1             = 
    26 r.30                  1996.76       12.6841               
    27 r.31                 -1996.76      -1996.76               
    28 r.32                  34.7317         18.91               
    29 r.33                 -34.7317      -1993.33               
    30 r.34                  1984.08        5.7611               
    31 r.35                 -1984.08      -1996.76               
    32 r.36                  11.4835       11.4835               
    33 r.37                 -11.4835      -1993.33               
    34 r.38                   1.8658        1.8658               
    35 r.39                  -1.8658      -1996.76               
    36 r.40                  15.8217        4.3382               
    37 r.41                 -15.8217      -1993.33               
    38 r.42                 -1979.89      -1992.57               
    39 r.43                  10.4948      -1983.01               
    40 r.44                 -1979.89      -1992.57               
    41 r.45                  10.4948      -1983.01               
    42 r.46                   3.2373        3.2373               
    43 r.47                  -3.2373      -1987.32               
    44 r.48                  1965.27        6.6733               
    45 r.49                 -1965.27      -1981.09               
    46 r.50                  1987.32        5.7611               
    47 r.51                 -1987.32      -1987.32               
    48 r.52                  1976.75       11.4835               
    49 r.53                 -1976.75      -1981.09               
    50 r.54                   5.1031        1.8658               
    51 r.55                  -5.1031      -1987.32               
    52 r.56                  1981.09        4.3382               
    53 r.57                 -1981.09      -1981.09               
    54 r.58                 -1983.12      -1983.12               
    55 r.59                 -1954.77      -1970.78               
    56 r.60                 -1983.12      -1983.12               
    57 r.61                 -1954.77      -1970.78               
    58 r.62                  15.9214        3.2373               
    59 r.63                 -15.9214      -1994.24               
    60 r.64                  1988.52        6.6733               
    61 r.65                 -1988.52      -1988.52               
    62 r.66                  12.6841       12.6841               
    63 r.67                 -12.6841      -1994.24               
    64 r.68                  23.2482         18.91               
    65 r.69                 -23.2482      -1988.52               
    66 r.70                  17.7872        1.8658               
    67 r.71                 -17.7872      -1994.24               
    68 r.72                   4.3382        4.3382               
    69 r.73                  -4.3382      -1988.52               
    70 r.74                  4.19109      -1990.05               
    71 r.75                 -1978.02       -1978.2               
    72 r.76                  4.19109      -1990.05               
    73 r.77                 -1978.02       -1978.2               
    74 r.78                  1998.13        3.2373               
    75 r.79                 -1998.13      -1998.13               
    76 r.80                  1984.18        6.6733               
    77 r.81                 -1984.18      -1995.66               
    78 r.82                   1994.9       12.6841               
    79 r.83                  -1994.9      -1998.13               
    80 r.84                    18.91         18.91               
    81 r.85                   -18.91      -1995.66               
    82 r.86                  1982.21        5.7611               
    83 r.87                 -1982.21      -1998.13               
    84 r.88                  1995.66       11.4835               
    85 r.89                 -1995.66      -1995.66               
    86 r.90                 -1978.02      -1993.94               
    87 r.91                 -1973.68      -1985.35               
    88 r.92                 -1978.02      -1993.94               
    89 r.93                 -1973.68      -1985.35               
    90 r.94                 -1979.89      -1992.57               
    91 r.95                  10.4948      -1983.01               
    92 r.96                 -1979.89      -1992.57               
    93 r.97                  10.4948      -1983.01               
    94 r.98                 -1983.12      -1983.12               
    95 r.99                 -1954.77      -1970.78               
    96 r.100                -1983.12      -1983.12               
    97 r.101                -1954.77      -1970.78               
    98 r.102                 4.19109      -1990.05               
    99 r.103                -1978.02       -1978.2               
   100 r.104                 4.19109      -1990.05               
   101 r.105                -1978.02       -1978.2               
   102 r.106                -1978.02      -1993.94               
   103 r.107                -1973.68      -1985.35               
   104 r.108                -1978.02      -1993.94               
   105 r.109                -1973.68      -1985.35               

   No. Column name       Activity     Lower bound   Upper bound
------ ------------    ------------- ------------- -------------
     1 tt                     22.734             0               
     2 s_1_1        *              1             0             1 
     3 t_1_1                  1.8658             0               
     4 s_2_1        *              0             0             1 
     5 t_2_1                 11.4835             0               
     6 s_1_2        *              1             0             1 
     7 t_1_2                  5.1031             0               
     8 s_2_2        *              0             0             1 
     9 t_2_2                 1976.75             0               
    10 s_1_3        *              0             0             1 
    11 t_1_3                 17.7872             0               
    12 s_2_3        *              1             0             1 
    13 t_2_3                       0             0               
    14 s_1_4        *              1             0             1 
    15 t_1_4                       0             0               
    16 s_2_4        *              0             0             1 
    17 t_2_4                 1995.66             0               
    18 s_1_5        *              1             0             1 
    19 t_1_5                 21.9783             0               
    20 s_2_5        *              0             0             1 
    21 t_2_5                 21.9783             0               
    22 u_1_1_2      *              1             0             1 
    23 u_2_1_2      *              1             0             1 
    24 u_1_1_3      *              1             0             1 
    25 u_2_1_3      *              0             0             1 
    26 u_1_1_4      *              0             0             1 
    27 u_2_1_4      *              1             0             1 
    28 u_1_2_1      *              0             0             1 
    29 u_2_2_1      *              0             0             1 
    30 u_1_2_3      *              1             0             1 
    31 u_2_2_3      *              0             0             1 
    32 u_1_2_4      *              0             0             1 
    33 u_2_2_4      *              1             0             1 
    34 u_1_3_1      *              0             0             1 
    35 u_2_3_1      *              1             0             1 
    36 u_1_3_2      *              0             0             1 
    37 u_2_3_2      *              1             0             1 
    38 u_1_3_4      *              0             0             1 
    39 u_2_3_4      *              1             0             1 
    40 u_1_4_1      *              1             0             1 
    41 u_2_4_1      *              0             0             1 
    42 u_1_4_2      *              1             0             1 
    43 u_2_4_2      *              0             0             1 
    44 u_1_4_3      *              1             0             1 
    45 u_2_4_3      *              0             0             1 

Integer feasibility conditions:

KKT.PE: max.abs.err = 0.00e+00 on row 0
        max.rel.err = 0.00e+00 on row 0
        High quality

KKT.PB: max.abs.err = 8.44e-14 on row 68
        max.rel.err = 1.58e-14 on row 68
        High quality

End of output
